n = 10; 

m= 10; 
									
13	22	30	17	40	16	21	49	44	48
32	47	14	71	71	69	37	72	71	17
76	47	73	57	63	69	17	35	24	29
46	16	38	16	19	24	32	29	1	26
4	24	25	2	46	4	9	4	17	8
32	46	1	47	22	36	26	41	42	38
41	2	21	43	6	29	5	16	6	8
41	45	10	2	2	32	12	10	36	25
36	14	5	36	35	16	28	34	43	39
76	47	73	57	63	69	17	35	24	29





	 












 
 


 

 
